\Problem name: compact

Minimize
OBJROW: C
Subject To
ord(0,1):  - x(0,0) + x(0,3) >= 10
ord(0,2):  x(0,2) - x(0,3) >= 1
ord(0,3):  x(0,1) - x(0,2) >= 6
ord(1,1):  - x(1,0) + x(1,3) >= 1
ord(1,2):  x(1,1) - x(1,3) >= 7
ord(1,3):  - x(1,1) + x(1,2) >= 5
ord(2,1):  x(2,2) - x(2,3) >= 9
ord(2,2):  x(2,1) - x(2,2) >= 3
ord(2,3):  x(2,0) - x(2,1) >= 7
ord(3,1):  - x(3,1) + x(3,3) >= 7
ord(3,2):  x(3,0) - x(3,3) >= 3
ord(3,3):  - x(3,0) + x(3,2) >= 9
triangle2(0,1,0):  y(0,1,0) + y(1,0,0) = 1
triangle2(0,1,1):  y(0,1,1) + y(1,0,1) = 1
triangle2(0,1,2):  y(0,1,2) + y(1,0,2) = 1
triangle2(0,1,3):  y(0,1,3) + y(1,0,3) = 1
triangle2(0,2,0):  y(0,2,0) + y(2,0,0) = 1
triangle2(0,2,1):  y(0,2,1) + y(2,0,1) = 1
triangle2(0,2,2):  y(0,2,2) + y(2,0,2) = 1
triangle2(0,2,3):  y(0,2,3) + y(2,0,3) = 1
triangle2(0,3,0):  y(0,3,0) + y(3,0,0) = 1
triangle2(0,3,1):  y(0,3,1) + y(3,0,1) = 1
triangle2(0,3,2):  y(0,3,2) + y(3,0,2) = 1
triangle2(0,3,3):  y(0,3,3) + y(3,0,3) = 1
triangle2(1,2,0):  y(1,2,0) + y(2,1,0) = 1
triangle2(1,2,1):  y(1,2,1) + y(2,1,1) = 1
triangle2(1,2,2):  y(1,2,2) + y(2,1,2) = 1
triangle2(1,2,3):  y(1,2,3) + y(2,1,3) = 1
triangle2(1,3,0):  y(1,3,0) + y(3,1,0) = 1
triangle2(1,3,1):  y(1,3,1) + y(3,1,1) = 1
triangle2(1,3,2):  y(1,3,2) + y(3,1,2) = 1
triangle2(1,3,3):  y(1,3,3) + y(3,1,3) = 1
triangle2(2,3,0):  y(2,3,0) + y(3,2,0) = 1
triangle2(2,3,1):  y(2,3,1) + y(3,2,1) = 1
triangle2(2,3,2):  y(2,3,2) + y(3,2,2) = 1
triangle2(2,3,3):  y(2,3,3) + y(3,2,3) = 1
MCLinV(0,1,0):  - x(0,0) + v(0,1,0)p - v(0,1,0)n + x(1,0) = -1
MCLinV(1,0,0):  x(0,0) + v(1,0,0)p - v(1,0,0)n - x(1,0) = -10
MCLin1(0,1,0):  u(0,1,0)p - u(0,1,0)n >= 0
MCLin2(0,1,0):  74 y(1,0,0) + u(0,1,0)p - u(0,1,0)n >= 0
MCLin3(0,1,0):  -69 y(1,0,0) - v(0,1,0)p + v(0,1,0)n + u(0,1,0)p - u(0,1,0)n >= -69
MCLin4(0,1,0):  -69 y(1,0,0) + u(0,1,0)p - u(0,1,0)n <= 0
MCLin5(0,1,0):  74 y(1,0,0) - v(0,1,0)p + v(0,1,0)n + u(0,1,0)p - u(0,1,0)n <= 74
MCLin6(1,0,0):  u(1,0,0)p - u(1,0,0)n >= 0
MCLin7(1,0,0):  80 y(0,1,0) + u(1,0,0)p - u(1,0,0)n >= 0
MCLin8(1,0,0):  -63 y(0,1,0) - v(1,0,0)p + v(1,0,0)n + u(1,0,0)p - u(1,0,0)n >= -63
MCLin9(1,0,0):  -63 y(0,1,0) + u(1,0,0)p - u(1,0,0)n <= 0
MCLin10(1,0,0):  80 y(0,1,0) - v(1,0,0)p + v(1,0,0)n + u(1,0,0)p - u(1,0,0)n <= 80
MCLinV(0,1,1):  - x(0,1) + v(0,1,1)p - v(0,1,1)n + x(1,1) = -5
MCLinV(1,0,1):  x(0,1) + v(1,0,1)p - v(1,0,1)n - x(1,1) = -7
MCLin1(0,1,1):  u(0,1,1)p - u(0,1,1)n >= 0
MCLin2(0,1,1):  69 y(1,0,1) + u(0,1,1)p - u(0,1,1)n >= 0
MCLin3(0,1,1):  -74 y(1,0,1) - v(0,1,1)p + v(0,1,1)n + u(0,1,1)p - u(0,1,1)n >= -74
MCLin4(0,1,1):  -74 y(1,0,1) + u(0,1,1)p - u(0,1,1)n <= 0
MCLin5(0,1,1):  69 y(1,0,1) - v(0,1,1)p + v(0,1,1)n + u(0,1,1)p - u(0,1,1)n <= 69
MCLin6(1,0,1):  u(1,0,1)p - u(1,0,1)n >= 0
MCLin7(1,0,1):  86 y(0,1,1) + u(1,0,1)p - u(1,0,1)n >= 0
MCLin8(1,0,1):  -57 y(0,1,1) - v(1,0,1)p + v(1,0,1)n + u(1,0,1)p - u(1,0,1)n >= -57
MCLin9(1,0,1):  -57 y(0,1,1) + u(1,0,1)p - u(1,0,1)n <= 0
MCLin10(1,0,1):  86 y(0,1,1) - v(1,0,1)p + v(1,0,1)n + u(1,0,1)p - u(1,0,1)n <= 86
MCLinV(0,1,2):  - x(0,2) + v(0,1,2)p - v(0,1,2)n + x(1,2) = -8
MCLinV(1,0,2):  x(0,2) + v(1,0,2)p - v(1,0,2)n - x(1,2) = -6
MCLin1(0,1,2):  u(0,1,2)p - u(0,1,2)n >= 0
MCLin2(0,1,2):  83 y(1,0,2) + u(0,1,2)p - u(0,1,2)n >= 0
MCLin3(0,1,2):  -60 y(1,0,2) - v(0,1,2)p + v(0,1,2)n + u(0,1,2)p - u(0,1,2)n >= -60
MCLin4(0,1,2):  -60 y(1,0,2) + u(0,1,2)p - u(0,1,2)n <= 0
MCLin5(0,1,2):  83 y(1,0,2) - v(0,1,2)p + v(0,1,2)n + u(0,1,2)p - u(0,1,2)n <= 83
MCLin6(1,0,2):  u(1,0,2)p - u(1,0,2)n >= 0
MCLin7(1,0,2):  74 y(0,1,2) + u(1,0,2)p - u(1,0,2)n >= 0
MCLin8(1,0,2):  -69 y(0,1,2) - v(1,0,2)p + v(1,0,2)n + u(1,0,2)p - u(1,0,2)n >= -69
MCLin9(1,0,2):  -69 y(0,1,2) + u(1,0,2)p - u(1,0,2)n <= 0
MCLin10(1,0,2):  74 y(0,1,2) - v(1,0,2)p + v(1,0,2)n + u(1,0,2)p - u(1,0,2)n <= 74
MCLinV(0,1,3):  - x(0,3) + v(0,1,3)p - v(0,1,3)n + x(1,3) = -7
MCLinV(1,0,3):  x(0,3) + v(1,0,3)p - v(1,0,3)n - x(1,3) = -1
MCLin1(0,1,3):  u(0,1,3)p - u(0,1,3)n >= 0
MCLin2(0,1,3):  71 y(1,0,3) + u(0,1,3)p - u(0,1,3)n >= 0
MCLin3(0,1,3):  -72 y(1,0,3) - v(0,1,3)p + v(0,1,3)n + u(0,1,3)p - u(0,1,3)n >= -72
MCLin4(0,1,3):  -72 y(1,0,3) + u(0,1,3)p - u(0,1,3)n <= 0
MCLin5(0,1,3):  71 y(1,0,3) - v(0,1,3)p + v(0,1,3)n + u(0,1,3)p - u(0,1,3)n <= 71
MCLin6(1,0,3):  u(1,0,3)p - u(1,0,3)n >= 0
MCLin7(1,0,3):  80 y(0,1,3) + u(1,0,3)p - u(1,0,3)n >= 0
MCLin8(1,0,3):  -63 y(0,1,3) - v(1,0,3)p + v(1,0,3)n + u(1,0,3)p - u(1,0,3)n >= -63
MCLin9(1,0,3):  -63 y(0,1,3) + u(1,0,3)p - u(1,0,3)n <= 0
MCLin10(1,0,3):  80 y(0,1,3) - v(1,0,3)p + v(1,0,3)n + u(1,0,3)p - u(1,0,3)n <= 80
MCLinV(0,2,0):  - x(0,0) + v(0,2,0)p - v(0,2,0)n + x(2,0) = -1
MCLinV(2,0,0):  x(0,0) + v(2,0,0)p - v(2,0,0)n - x(2,0) = -10
MCLin1(0,2,0):  u(0,2,0)p - u(0,2,0)n >= 0
MCLin2(0,2,0):  94 y(2,0,0) + u(0,2,0)p - u(0,2,0)n >= 0
MCLin3(0,2,0):  -50 y(2,0,0) - v(0,2,0)p + v(0,2,0)n + u(0,2,0)p - u(0,2,0)n >= -50
MCLin4(0,2,0):  -50 y(2,0,0) + u(0,2,0)p - u(0,2,0)n <= 0
MCLin5(0,2,0):  94 y(2,0,0) - v(0,2,0)p + v(0,2,0)n + u(0,2,0)p - u(0,2,0)n <= 94
MCLin6(2,0,0):  u(2,0,0)p - u(2,0,0)n >= 0
MCLin7(2,0,0):  61 y(0,2,0) + u(2,0,0)p - u(2,0,0)n >= 0
MCLin8(2,0,0):  -83 y(0,2,0) - v(2,0,0)p + v(2,0,0)n + u(2,0,0)p - u(2,0,0)n >= -83
MCLin9(2,0,0):  -83 y(0,2,0) + u(2,0,0)p - u(2,0,0)n <= 0
MCLin10(2,0,0):  61 y(0,2,0) - v(2,0,0)p + v(2,0,0)n + u(2,0,0)p - u(2,0,0)n <= 61
MCLinV(0,2,1):  - x(0,1) + v(0,2,1)p - v(0,2,1)n + x(2,1) = -7
MCLinV(2,0,1):  x(0,1) + v(2,0,1)p - v(2,0,1)n - x(2,1) = -7
MCLin1(0,2,1):  u(0,2,1)p - u(0,2,1)n >= 0
MCLin2(0,2,1):  76 y(2,0,1) + u(0,2,1)p - u(0,2,1)n >= 0
MCLin3(0,2,1):  -68 y(2,0,1) - v(0,2,1)p + v(0,2,1)n + u(0,2,1)p - u(0,2,1)n >= -68
MCLin4(0,2,1):  -68 y(2,0,1) + u(0,2,1)p - u(0,2,1)n <= 0
MCLin5(0,2,1):  76 y(2,0,1) - v(0,2,1)p + v(0,2,1)n + u(0,2,1)p - u(0,2,1)n <= 76
MCLin6(2,0,1):  u(2,0,1)p - u(2,0,1)n >= 0
MCLin7(2,0,1):  82 y(0,2,1) + u(2,0,1)p - u(2,0,1)n >= 0
MCLin8(2,0,1):  -62 y(0,2,1) - v(2,0,1)p + v(2,0,1)n + u(2,0,1)p - u(2,0,1)n >= -62
MCLin9(2,0,1):  -62 y(0,2,1) + u(2,0,1)p - u(2,0,1)n <= 0
MCLin10(2,0,1):  82 y(0,2,1) - v(2,0,1)p + v(2,0,1)n + u(2,0,1)p - u(2,0,1)n <= 82
MCLinV(0,2,2):  - x(0,2) + v(0,2,2)p - v(0,2,2)n + x(2,2) = -3
MCLinV(2,0,2):  x(0,2) + v(2,0,2)p - v(2,0,2)n - x(2,2) = -6
MCLin1(0,2,2):  u(0,2,2)p - u(0,2,2)n >= 0
MCLin2(0,2,2):  75 y(2,0,2) + u(0,2,2)p - u(0,2,2)n >= 0
MCLin3(0,2,2):  -69 y(2,0,2) - v(0,2,2)p + v(0,2,2)n + u(0,2,2)p - u(0,2,2)n >= -69
MCLin4(0,2,2):  -69 y(2,0,2) + u(0,2,2)p - u(0,2,2)n <= 0
MCLin5(0,2,2):  75 y(2,0,2) - v(0,2,2)p + v(0,2,2)n + u(0,2,2)p - u(0,2,2)n <= 75
MCLin6(2,0,2):  u(2,0,2)p - u(2,0,2)n >= 0
MCLin7(2,0,2):  78 y(0,2,2) + u(2,0,2)p - u(2,0,2)n >= 0
MCLin8(2,0,2):  -66 y(0,2,2) - v(2,0,2)p + v(2,0,2)n + u(2,0,2)p - u(2,0,2)n >= -66
MCLin9(2,0,2):  -66 y(0,2,2) + u(2,0,2)p - u(2,0,2)n <= 0
MCLin10(2,0,2):  78 y(0,2,2) - v(2,0,2)p + v(2,0,2)n + u(2,0,2)p - u(2,0,2)n <= 78
MCLinV(0,2,3):  - x(0,3) + v(0,2,3)p - v(0,2,3)n + x(2,3) = -9
MCLinV(2,0,3):  x(0,3) + v(2,0,3)p - v(2,0,3)n - x(2,3) = -1
MCLin1(0,2,3):  u(0,2,3)p - u(0,2,3)n >= 0
MCLin2(0,2,3):  73 y(2,0,3) + u(0,2,3)p - u(0,2,3)n >= 0
MCLin3(0,2,3):  -71 y(2,0,3) - v(0,2,3)p + v(0,2,3)n + u(0,2,3)p - u(0,2,3)n >= -71
MCLin4(0,2,3):  -71 y(2,0,3) + u(0,2,3)p - u(0,2,3)n <= 0
MCLin5(0,2,3):  73 y(2,0,3) - v(0,2,3)p + v(0,2,3)n + u(0,2,3)p - u(0,2,3)n <= 73
MCLin6(2,0,3):  u(2,0,3)p - u(2,0,3)n >= 0
MCLin7(2,0,3):  81 y(0,2,3) + u(2,0,3)p - u(2,0,3)n >= 0
MCLin8(2,0,3):  -63 y(0,2,3) - v(2,0,3)p + v(2,0,3)n + u(2,0,3)p - u(2,0,3)n >= -63
MCLin9(2,0,3):  -63 y(0,2,3) + u(2,0,3)p - u(2,0,3)n <= 0
MCLin10(2,0,3):  81 y(0,2,3) - v(2,0,3)p + v(2,0,3)n + u(2,0,3)p - u(2,0,3)n <= 81
MCLinV(0,3,0):  - x(0,0) + v(0,3,0)p - v(0,3,0)n + x(3,0) = -9
MCLinV(3,0,0):  x(0,0) + v(3,0,0)p - v(3,0,0)n - x(3,0) = -10
MCLin1(0,3,0):  u(0,3,0)p - u(0,3,0)n >= 0
MCLin2(0,3,0):  84 y(3,0,0) + u(0,3,0)p - u(0,3,0)n >= 0
MCLin3(0,3,0):  -51 y(3,0,0) - v(0,3,0)p + v(0,3,0)n + u(0,3,0)p - u(0,3,0)n >= -51
MCLin4(0,3,0):  -51 y(3,0,0) + u(0,3,0)p - u(0,3,0)n <= 0
MCLin5(0,3,0):  84 y(3,0,0) - v(0,3,0)p + v(0,3,0)n + u(0,3,0)p - u(0,3,0)n <= 84
MCLin6(3,0,0):  u(3,0,0)p - u(3,0,0)n >= 0
MCLin7(3,0,0):  70 y(0,3,0) + u(3,0,0)p - u(3,0,0)n >= 0
MCLin8(3,0,0):  -65 y(0,3,0) - v(3,0,0)p + v(3,0,0)n + u(3,0,0)p - u(3,0,0)n >= -65
MCLin9(3,0,0):  -65 y(0,3,0) + u(3,0,0)p - u(3,0,0)n <= 0
MCLin10(3,0,0):  70 y(0,3,0) - v(3,0,0)p + v(3,0,0)n + u(3,0,0)p - u(3,0,0)n <= 70
MCLinV(0,3,1):  - x(0,1) + v(0,3,1)p - v(0,3,1)n + x(3,1) = -7
MCLinV(3,0,1):  x(0,1) + v(3,0,1)p - v(3,0,1)n - x(3,1) = -7
MCLin1(0,3,1):  u(0,3,1)p - u(0,3,1)n >= 0
MCLin2(0,3,1):  55 y(3,0,1) + u(0,3,1)p - u(0,3,1)n >= 0
MCLin3(0,3,1):  -80 y(3,0,1) - v(0,3,1)p + v(0,3,1)n + u(0,3,1)p - u(0,3,1)n >= -80
MCLin4(0,3,1):  -80 y(3,0,1) + u(0,3,1)p - u(0,3,1)n <= 0
MCLin5(0,3,1):  55 y(3,0,1) - v(0,3,1)p + v(0,3,1)n + u(0,3,1)p - u(0,3,1)n <= 55
MCLin6(3,0,1):  u(3,0,1)p - u(3,0,1)n >= 0
MCLin7(3,0,1):  94 y(0,3,1) + u(3,0,1)p - u(3,0,1)n >= 0
MCLin8(3,0,1):  -41 y(0,3,1) - v(3,0,1)p + v(3,0,1)n + u(3,0,1)p - u(3,0,1)n >= -41
MCLin9(3,0,1):  -41 y(0,3,1) + u(3,0,1)p - u(3,0,1)n <= 0
MCLin10(3,0,1):  94 y(0,3,1) - v(3,0,1)p + v(3,0,1)n + u(3,0,1)p - u(3,0,1)n <= 94
MCLinV(0,3,2):  - x(0,2) + v(0,3,2)p - v(0,3,2)n + x(3,2) = -10
MCLinV(3,0,2):  x(0,2) + v(3,0,2)p - v(3,0,2)n - x(3,2) = -6
MCLin1(0,3,2):  u(0,3,2)p - u(0,3,2)n >= 0
MCLin2(0,3,2):  83 y(3,0,2) + u(0,3,2)p - u(0,3,2)n >= 0
MCLin3(0,3,2):  -52 y(3,0,2) - v(0,3,2)p + v(0,3,2)n + u(0,3,2)p - u(0,3,2)n >= -52
MCLin4(0,3,2):  -52 y(3,0,2) + u(0,3,2)p - u(0,3,2)n <= 0
MCLin5(0,3,2):  83 y(3,0,2) - v(0,3,2)p + v(0,3,2)n + u(0,3,2)p - u(0,3,2)n <= 83
MCLin6(3,0,2):  u(3,0,2)p - u(3,0,2)n >= 0
MCLin7(3,0,2):  68 y(0,3,2) + u(3,0,2)p - u(3,0,2)n >= 0
MCLin8(3,0,2):  -67 y(0,3,2) - v(3,0,2)p + v(3,0,2)n + u(3,0,2)p - u(3,0,2)n >= -67
MCLin9(3,0,2):  -67 y(0,3,2) + u(3,0,2)p - u(3,0,2)n <= 0
MCLin10(3,0,2):  68 y(0,3,2) - v(3,0,2)p + v(3,0,2)n + u(3,0,2)p - u(3,0,2)n <= 68
MCLinV(0,3,3):  - x(0,3) + v(0,3,3)p - v(0,3,3)n + x(3,3) = -3
MCLinV(3,0,3):  x(0,3) + v(3,0,3)p - v(3,0,3)n - x(3,3) = -1
MCLin1(0,3,3):  u(0,3,3)p - u(0,3,3)n >= 0
MCLin2(0,3,3):  65 y(3,0,3) + u(0,3,3)p - u(0,3,3)n >= 0
MCLin3(0,3,3):  -70 y(3,0,3) - v(0,3,3)p + v(0,3,3)n + u(0,3,3)p - u(0,3,3)n >= -70
MCLin4(0,3,3):  -70 y(3,0,3) + u(0,3,3)p - u(0,3,3)n <= 0
MCLin5(0,3,3):  65 y(3,0,3) - v(0,3,3)p + v(0,3,3)n + u(0,3,3)p - u(0,3,3)n <= 65
MCLin6(3,0,3):  u(3,0,3)p - u(3,0,3)n >= 0
MCLin7(3,0,3):  74 y(0,3,3) + u(3,0,3)p - u(3,0,3)n >= 0
MCLin8(3,0,3):  -61 y(0,3,3) - v(3,0,3)p + v(3,0,3)n + u(3,0,3)p - u(3,0,3)n >= -61
MCLin9(3,0,3):  -61 y(0,3,3) + u(3,0,3)p - u(3,0,3)n <= 0
MCLin10(3,0,3):  74 y(0,3,3) - v(3,0,3)p + v(3,0,3)n + u(3,0,3)p - u(3,0,3)n <= 74
MCLinV(1,2,0):  - x(1,0) + v(1,2,0)p - v(1,2,0)n + x(2,0) = -1
MCLinV(2,1,0):  x(1,0) + v(2,1,0)p - v(2,1,0)n - x(2,0) = -1
MCLin1(1,2,0):  u(1,2,0)p - u(1,2,0)n >= 0
MCLin2(1,2,0):  94 y(2,1,0) + u(1,2,0)p - u(1,2,0)n >= 0
MCLin3(1,2,0):  -53 y(2,1,0) - v(1,2,0)p + v(1,2,0)n + u(1,2,0)p - u(1,2,0)n >= -53
MCLin4(1,2,0):  -53 y(2,1,0) + u(1,2,0)p - u(1,2,0)n <= 0
MCLin5(1,2,0):  94 y(2,1,0) - v(1,2,0)p + v(1,2,0)n + u(1,2,0)p - u(1,2,0)n <= 94
MCLin6(2,1,0):  u(2,1,0)p - u(2,1,0)n >= 0
MCLin7(2,1,0):  55 y(1,2,0) + u(2,1,0)p - u(2,1,0)n >= 0
MCLin8(2,1,0):  -92 y(1,2,0) - v(2,1,0)p + v(2,1,0)n + u(2,1,0)p - u(2,1,0)n >= -92
MCLin9(2,1,0):  -92 y(1,2,0) + u(2,1,0)p - u(2,1,0)n <= 0
MCLin10(2,1,0):  55 y(1,2,0) - v(2,1,0)p + v(2,1,0)n + u(2,1,0)p - u(2,1,0)n <= 55
MCLinV(1,2,1):  - x(1,1) + v(1,2,1)p - v(1,2,1)n + x(2,1) = -7
MCLinV(2,1,1):  x(1,1) + v(2,1,1)p - v(2,1,1)n - x(2,1) = -5
MCLin1(1,2,1):  u(1,2,1)p - u(1,2,1)n >= 0
MCLin2(1,2,1):  85 y(2,1,1) + u(1,2,1)p - u(1,2,1)n >= 0
MCLin3(1,2,1):  -62 y(2,1,1) - v(1,2,1)p + v(1,2,1)n + u(1,2,1)p - u(1,2,1)n >= -62
MCLin4(1,2,1):  -62 y(2,1,1) + u(1,2,1)p - u(1,2,1)n <= 0
MCLin5(1,2,1):  85 y(2,1,1) - v(1,2,1)p + v(1,2,1)n + u(1,2,1)p - u(1,2,1)n <= 85
MCLin6(2,1,1):  u(2,1,1)p - u(2,1,1)n >= 0
MCLin7(2,1,1):  74 y(1,2,1) + u(2,1,1)p - u(2,1,1)n >= 0
MCLin8(2,1,1):  -73 y(1,2,1) - v(2,1,1)p + v(2,1,1)n + u(2,1,1)p - u(2,1,1)n >= -73
MCLin9(2,1,1):  -73 y(1,2,1) + u(2,1,1)p - u(2,1,1)n <= 0
MCLin10(2,1,1):  74 y(1,2,1) - v(2,1,1)p + v(2,1,1)n + u(2,1,1)p - u(2,1,1)n <= 74
MCLinV(1,2,2):  - x(1,2) + v(1,2,2)p - v(1,2,2)n + x(2,2) = -3
MCLinV(2,1,2):  x(1,2) + v(2,1,2)p - v(2,1,2)n - x(2,2) = -8
MCLin1(1,2,2):  u(1,2,2)p - u(1,2,2)n >= 0
MCLin2(1,2,2):  73 y(2,1,2) + u(1,2,2)p - u(1,2,2)n >= 0
MCLin3(1,2,2):  -74 y(2,1,2) - v(1,2,2)p + v(1,2,2)n + u(1,2,2)p - u(1,2,2)n >= -74
MCLin4(1,2,2):  -74 y(2,1,2) + u(1,2,2)p - u(1,2,2)n <= 0
MCLin5(1,2,2):  73 y(2,1,2) - v(1,2,2)p + v(1,2,2)n + u(1,2,2)p - u(1,2,2)n <= 73
MCLin6(2,1,2):  u(2,1,2)p - u(2,1,2)n >= 0
MCLin7(2,1,2):  85 y(1,2,2) + u(2,1,2)p - u(2,1,2)n >= 0
MCLin8(2,1,2):  -62 y(1,2,2) - v(2,1,2)p + v(2,1,2)n + u(2,1,2)p - u(2,1,2)n >= -62
MCLin9(2,1,2):  -62 y(1,2,2) + u(2,1,2)p - u(2,1,2)n <= 0
MCLin10(2,1,2):  85 y(1,2,2) - v(2,1,2)p + v(2,1,2)n + u(2,1,2)p - u(2,1,2)n <= 85
MCLinV(1,2,3):  - x(1,3) + v(1,2,3)p - v(1,2,3)n + x(2,3) = -9
MCLinV(2,1,3):  x(1,3) + v(2,1,3)p - v(2,1,3)n - x(2,3) = -7
MCLin1(1,2,3):  u(1,2,3)p - u(1,2,3)n >= 0
MCLin2(1,2,3):  82 y(2,1,3) + u(1,2,3)p - u(1,2,3)n >= 0
MCLin3(1,2,3):  -65 y(2,1,3) - v(1,2,3)p + v(1,2,3)n + u(1,2,3)p - u(1,2,3)n >= -65
MCLin4(1,2,3):  -65 y(2,1,3) + u(1,2,3)p - u(1,2,3)n <= 0
MCLin5(1,2,3):  82 y(2,1,3) - v(1,2,3)p + v(1,2,3)n + u(1,2,3)p - u(1,2,3)n <= 82
MCLin6(2,1,3):  u(2,1,3)p - u(2,1,3)n >= 0
MCLin7(2,1,3):  81 y(1,2,3) + u(2,1,3)p - u(2,1,3)n >= 0
MCLin8(2,1,3):  -66 y(1,2,3) - v(2,1,3)p + v(2,1,3)n + u(2,1,3)p - u(2,1,3)n >= -66
MCLin9(2,1,3):  -66 y(1,2,3) + u(2,1,3)p - u(2,1,3)n <= 0
MCLin10(2,1,3):  81 y(1,2,3) - v(2,1,3)p + v(2,1,3)n + u(2,1,3)p - u(2,1,3)n <= 81
MCLinV(1,3,0):  - x(1,0) + v(1,3,0)p - v(1,3,0)n + x(3,0) = -9
MCLinV(3,1,0):  x(1,0) + v(3,1,0)p - v(3,1,0)n - x(3,0) = -1
MCLin1(1,3,0):  u(1,3,0)p - u(1,3,0)n >= 0
MCLin2(1,3,0):  84 y(3,1,0) + u(1,3,0)p - u(1,3,0)n >= 0
MCLin3(1,3,0):  -54 y(3,1,0) - v(1,3,0)p + v(1,3,0)n + u(1,3,0)p - u(1,3,0)n >= -54
MCLin4(1,3,0):  -54 y(3,1,0) + u(1,3,0)p - u(1,3,0)n <= 0
MCLin5(1,3,0):  84 y(3,1,0) - v(1,3,0)p + v(1,3,0)n + u(1,3,0)p - u(1,3,0)n <= 84
MCLin6(3,1,0):  u(3,1,0)p - u(3,1,0)n >= 0
MCLin7(3,1,0):  64 y(1,3,0) + u(3,1,0)p - u(3,1,0)n >= 0
MCLin8(3,1,0):  -74 y(1,3,0) - v(3,1,0)p + v(3,1,0)n + u(3,1,0)p - u(3,1,0)n >= -74
MCLin9(3,1,0):  -74 y(1,3,0) + u(3,1,0)p - u(3,1,0)n <= 0
MCLin10(3,1,0):  64 y(1,3,0) - v(3,1,0)p + v(3,1,0)n + u(3,1,0)p - u(3,1,0)n <= 64
MCLinV(1,3,1):  - x(1,1) + v(1,3,1)p - v(1,3,1)n + x(3,1) = -7
MCLinV(3,1,1):  x(1,1) + v(3,1,1)p - v(3,1,1)n - x(3,1) = -5
MCLin1(1,3,1):  u(1,3,1)p - u(1,3,1)n >= 0
MCLin2(1,3,1):  64 y(3,1,1) + u(1,3,1)p - u(1,3,1)n >= 0
MCLin3(1,3,1):  -74 y(3,1,1) - v(1,3,1)p + v(1,3,1)n + u(1,3,1)p - u(1,3,1)n >= -74
MCLin4(1,3,1):  -74 y(3,1,1) + u(1,3,1)p - u(1,3,1)n <= 0
MCLin5(1,3,1):  64 y(3,1,1) - v(1,3,1)p + v(1,3,1)n + u(1,3,1)p - u(1,3,1)n <= 64
MCLin6(3,1,1):  u(3,1,1)p - u(3,1,1)n >= 0
MCLin7(3,1,1):  86 y(1,3,1) + u(3,1,1)p - u(3,1,1)n >= 0
MCLin8(3,1,1):  -52 y(1,3,1) - v(3,1,1)p + v(3,1,1)n + u(3,1,1)p - u(3,1,1)n >= -52
MCLin9(3,1,1):  -52 y(1,3,1) + u(3,1,1)p - u(3,1,1)n <= 0
MCLin10(3,1,1):  86 y(1,3,1) - v(3,1,1)p + v(3,1,1)n + u(3,1,1)p - u(3,1,1)n <= 86
MCLinV(1,3,2):  - x(1,2) + v(1,3,2)p - v(1,3,2)n + x(3,2) = -10
MCLinV(3,1,2):  x(1,2) + v(3,1,2)p - v(3,1,2)n - x(3,2) = -8
MCLin1(1,3,2):  u(1,3,2)p - u(1,3,2)n >= 0
MCLin2(1,3,2):  81 y(3,1,2) + u(1,3,2)p - u(1,3,2)n >= 0
MCLin3(1,3,2):  -57 y(3,1,2) - v(1,3,2)p + v(1,3,2)n + u(1,3,2)p - u(1,3,2)n >= -57
MCLin4(1,3,2):  -57 y(3,1,2) + u(1,3,2)p - u(1,3,2)n <= 0
MCLin5(1,3,2):  81 y(3,1,2) - v(1,3,2)p + v(1,3,2)n + u(1,3,2)p - u(1,3,2)n <= 81
MCLin6(3,1,2):  u(3,1,2)p - u(3,1,2)n >= 0
MCLin7(3,1,2):  75 y(1,3,2) + u(3,1,2)p - u(3,1,2)n >= 0
MCLin8(3,1,2):  -63 y(1,3,2) - v(3,1,2)p + v(3,1,2)n + u(3,1,2)p - u(3,1,2)n >= -63
MCLin9(3,1,2):  -63 y(1,3,2) + u(3,1,2)p - u(3,1,2)n <= 0
MCLin10(3,1,2):  75 y(1,3,2) - v(3,1,2)p + v(3,1,2)n + u(3,1,2)p - u(3,1,2)n <= 75
MCLinV(1,3,3):  - x(1,3) + v(1,3,3)p - v(1,3,3)n + x(3,3) = -3
MCLinV(3,1,3):  x(1,3) + v(3,1,3)p - v(3,1,3)n - x(3,3) = -7
MCLin1(1,3,3):  u(1,3,3)p - u(1,3,3)n >= 0
MCLin2(1,3,3):  74 y(3,1,3) + u(1,3,3)p - u(1,3,3)n >= 0
MCLin3(1,3,3):  -64 y(3,1,3) - v(1,3,3)p + v(1,3,3)n + u(1,3,3)p - u(1,3,3)n >= -64
MCLin4(1,3,3):  -64 y(3,1,3) + u(1,3,3)p - u(1,3,3)n <= 0
MCLin5(1,3,3):  74 y(3,1,3) - v(1,3,3)p + v(1,3,3)n + u(1,3,3)p - u(1,3,3)n <= 74
MCLin6(3,1,3):  u(3,1,3)p - u(3,1,3)n >= 0
MCLin7(3,1,3):  74 y(1,3,3) + u(3,1,3)p - u(3,1,3)n >= 0
MCLin8(3,1,3):  -64 y(1,3,3) - v(3,1,3)p + v(3,1,3)n + u(3,1,3)p - u(3,1,3)n >= -64
MCLin9(3,1,3):  -64 y(1,3,3) + u(3,1,3)p - u(3,1,3)n <= 0
MCLin10(3,1,3):  74 y(1,3,3) - v(3,1,3)p + v(3,1,3)n + u(3,1,3)p - u(3,1,3)n <= 74
MCLinV(2,3,0):  - x(2,0) + v(2,3,0)p - v(2,3,0)n + x(3,0) = -9
MCLinV(3,2,0):  x(2,0) + v(3,2,0)p - v(3,2,0)n - x(3,0) = -1
MCLin1(2,3,0):  u(2,3,0)p - u(2,3,0)n >= 0
MCLin2(2,3,0):  65 y(3,2,0) + u(2,3,0)p - u(2,3,0)n >= 0
MCLin3(2,3,0):  -74 y(3,2,0) - v(2,3,0)p + v(2,3,0)n + u(2,3,0)p - u(2,3,0)n >= -74
MCLin4(2,3,0):  -74 y(3,2,0) + u(2,3,0)p - u(2,3,0)n <= 0
MCLin5(2,3,0):  65 y(3,2,0) - v(2,3,0)p + v(2,3,0)n + u(2,3,0)p - u(2,3,0)n <= 65
MCLin6(3,2,0):  u(3,2,0)p - u(3,2,0)n >= 0
MCLin7(3,2,0):  84 y(2,3,0) + u(3,2,0)p - u(3,2,0)n >= 0
MCLin8(3,2,0):  -55 y(2,3,0) - v(3,2,0)p + v(3,2,0)n + u(3,2,0)p - u(3,2,0)n >= -55
MCLin9(3,2,0):  -55 y(2,3,0) + u(3,2,0)p - u(3,2,0)n <= 0
MCLin10(3,2,0):  84 y(2,3,0) - v(3,2,0)p + v(3,2,0)n + u(3,2,0)p - u(3,2,0)n <= 84
MCLinV(2,3,1):  - x(2,1) + v(2,3,1)p - v(2,3,1)n + x(3,1) = -7
MCLinV(3,2,1):  x(2,1) + v(3,2,1)p - v(3,2,1)n - x(3,1) = -7
MCLin1(2,3,1):  u(2,3,1)p - u(2,3,1)n >= 0
MCLin2(2,3,1):  60 y(3,2,1) + u(2,3,1)p - u(2,3,1)n >= 0
MCLin3(2,3,1):  -79 y(3,2,1) - v(2,3,1)p + v(2,3,1)n + u(2,3,1)p - u(2,3,1)n >= -79
MCLin4(2,3,1):  -79 y(3,2,1) + u(2,3,1)p - u(2,3,1)n <= 0
MCLin5(2,3,1):  60 y(3,2,1) - v(2,3,1)p + v(2,3,1)n + u(2,3,1)p - u(2,3,1)n <= 60
MCLin6(3,2,1):  u(3,2,1)p - u(3,2,1)n >= 0
MCLin7(3,2,1):  93 y(2,3,1) + u(3,2,1)p - u(3,2,1)n >= 0
MCLin8(3,2,1):  -46 y(2,3,1) - v(3,2,1)p + v(3,2,1)n + u(3,2,1)p - u(3,2,1)n >= -46
MCLin9(3,2,1):  -46 y(2,3,1) + u(3,2,1)p - u(3,2,1)n <= 0
MCLin10(3,2,1):  93 y(2,3,1) - v(3,2,1)p + v(3,2,1)n + u(3,2,1)p - u(3,2,1)n <= 93
MCLinV(2,3,2):  - x(2,2) + v(2,3,2)p - v(2,3,2)n + x(3,2) = -10
MCLinV(3,2,2):  x(2,2) + v(3,2,2)p - v(3,2,2)n - x(3,2) = -3
MCLin1(2,3,2):  u(2,3,2)p - u(2,3,2)n >= 0
MCLin2(2,3,2):  85 y(3,2,2) + u(2,3,2)p - u(2,3,2)n >= 0
MCLin3(2,3,2):  -54 y(3,2,2) - v(2,3,2)p + v(2,3,2)n + u(2,3,2)p - u(2,3,2)n >= -54
MCLin4(2,3,2):  -54 y(3,2,2) + u(2,3,2)p - u(2,3,2)n <= 0
MCLin5(2,3,2):  85 y(3,2,2) - v(2,3,2)p + v(2,3,2)n + u(2,3,2)p - u(2,3,2)n <= 85
MCLin6(3,2,2):  u(3,2,2)p - u(3,2,2)n >= 0
MCLin7(3,2,2):  67 y(2,3,2) + u(3,2,2)p - u(3,2,2)n >= 0
MCLin8(3,2,2):  -72 y(2,3,2) - v(3,2,2)p + v(3,2,2)n + u(3,2,2)p - u(3,2,2)n >= -72
MCLin9(3,2,2):  -72 y(2,3,2) + u(3,2,2)p - u(3,2,2)n <= 0
MCLin10(3,2,2):  67 y(2,3,2) - v(3,2,2)p + v(3,2,2)n + u(3,2,2)p - u(3,2,2)n <= 67
MCLinV(2,3,3):  - x(2,3) + v(2,3,3)p - v(2,3,3)n + x(3,3) = -3
MCLinV(3,2,3):  x(2,3) + v(3,2,3)p - v(3,2,3)n - x(3,3) = -9
MCLin1(2,3,3):  u(2,3,3)p - u(2,3,3)n >= 0
MCLin2(2,3,3):  75 y(3,2,3) + u(2,3,3)p - u(2,3,3)n >= 0
MCLin3(2,3,3):  -64 y(3,2,3) - v(2,3,3)p + v(2,3,3)n + u(2,3,3)p - u(2,3,3)n >= -64
MCLin4(2,3,3):  -64 y(3,2,3) + u(2,3,3)p - u(2,3,3)n <= 0
MCLin5(2,3,3):  75 y(3,2,3) - v(2,3,3)p + v(2,3,3)n + u(2,3,3)p - u(2,3,3)n <= 75
MCLin6(3,2,3):  u(3,2,3)p - u(3,2,3)n >= 0
MCLin7(3,2,3):  76 y(2,3,3) + u(3,2,3)p - u(3,2,3)n >= 0
MCLin8(3,2,3):  -63 y(2,3,3) - v(3,2,3)p + v(3,2,3)n + u(3,2,3)p - u(3,2,3)n >= -63
MCLin9(3,2,3):  -63 y(2,3,3) + u(3,2,3)p - u(3,2,3)n <= 0
MCLin10(3,2,3):  76 y(2,3,3) - v(3,2,3)p + v(3,2,3)n + u(3,2,3)p - u(3,2,3)n <= 76
makespan(0):  C - x(0,1) >= 7
makespan(1):  C - x(1,2) >= 8
makespan(2):  C - x(2,0) >= 1
makespan(3):  C - x(3,2) >= 10
cut_clique_1(013,0):  0.57073 x(0,0) + 0.60378 x(1,0) + 0.09891 x(3,0) >= 1
cut_clique_1(0123,0):  0.66467 x(0,0) + 0.75142 x(1,0) + 0.00068 x(2,0) + 0.06528 x(3,0) >= 1
cut_clique_1(012,0):  0.36046 x(0,0) + 0.63249 x(1,0) + 0.05184 x(2,0) >= 1
cut_clique_1(01,0):  x(0,0) + x(1,0) >= 1
cut_clique_1(123,3):  0.27801 x(1,3) + 0.55667 x(2,3) + 0.09100 x(3,3) >= 1
cut_clique_1(13,3):  0.27526 x(1,3) + 0.09100 x(3,3) >= 1
cut_clique_1(12,3):  0.95026 x(1,3) + x(2,3) >= 1
cut_clique_1(012,3):  0.03448 x(0,3) + 0.52927 x(1,3) + 0.16850 x(2,3) >= 1
cut_clique_2(012,0):  0.52933 x(0,0) + 0.29877 x(1,0) + 0.03680 x(2,0) >= 1
cut_clique_2(013,0):  0.91853 x(0,0) + 0.24248 x(1,0) + 0.06976 x(3,0) >= 1
cut_clique_2(01,0):  x(0,0) + 0.23984 x(1,0) >= 1
cut_clique_2(01,2):  0.03096 x(0,2) + 0.04680 x(1,2) >= 1
cut_clique_2(12,3):  0.48656 x(1,3) + 0.97603 x(2,3) >= 1
cut_clique_2(123,3):  0.28806 x(1,3) + 0.51899 x(2,3) + 0.02381 x(3,3) >= 1
cut_clique_2(012,3):  0.04465 x(0,3) + 0.22122 x(1,3) + 0.40800 x(2,3) >= 1
cut_clique_3(12,3):  0.65693 x(1,3) + 0.10582 x(2,3) >= 1
cut_clique_3(123,3):  0.29522 x(1,3) + 0.17083 x(2,3) + 0.04577 x(3,3) >= 1
cut_clique_3(012,3):  0.01707 x(0,3) + 0.24510 x(1,3) + 0.51152 x(2,3) >= 1
cut_clique_4(01,2):  0.02438 x(0,2) + 0.05145 x(1,2) >= 1
cut_clique_4(12,3):  0.44136 x(1,3) + 0.23107 x(2,3) >= 1
cut_clique_4(012,3):  0.04300 x(0,3) + 0.14830 x(1,3) + 0.21015 x(2,3) >= 1
cut_clique_4(23,3):  0.13774 x(2,3) + 0.11126 x(3,3) >= 1
cut_clique_4(123,3):  0.06156 x(1,3) + 0.08816 x(2,3) + 0.10939 x(3,3) >= 1
cut_clique_5(013,0):  0.15168 x(0,0) + 0.47464 x(1,0) + 0.08453 x(3,0) >= 1
cut_clique_5(13,2):  0.02416 x(1,2) + 0.03391 x(3,2) >= 1
cut_clique_5(12,3):  0.33521 x(1,3) + 0.20243 x(2,3) >= 1
cut_clique_5(23,3):  0.09309 x(2,3) + 0.11880 x(3,3) >= 1
cut_clique_5(123,3):  0.01918 x(1,3) + 0.06113 x(2,3) + 0.11834 x(3,3) >= 1
cut_clique_5(13,3):  0.04959 x(1,3) + 0.13046 x(3,3) >= 1
cut_clique_6(023,1):  0.04360 x(0,1) + 0.01513 x(2,1) + 0.35929 x(3,1) >= 1
cut_clique_6(02,1):  0.04290 x(0,1) + 0.01586 x(2,1) >= 1
cut_clique_6(01,2):  0.04266 x(0,2) + 0.03313 x(1,2) >= 1
cut_clique_6(13,2):  0.02260 x(1,2) + 0.03451 x(3,2) >= 1
cut_clique_6(12,3):  0.19452 x(1,3) + 0.22248 x(2,3) >= 1
cut_clique_6(012,3):  0.00122 x(0,3) + 0.15115 x(1,3) + 0.12388 x(2,3) >= 1
cut_clique_7(013,0):  0.04943 x(0,0) + 0.52648 x(1,0) + 0.08732 x(3,0) >= 1
cut_clique_7(01,0):  x(0,0) + 0.23641 x(1,0) >= 1
cut_clique_7(01,2):  0.02881 x(0,2) + 0.04080 x(1,2) >= 1
cut_clique_7(013,2):  0.02149 x(0,2) + 0.01837 x(1,2) + 0.01914 x(3,2) >= 1
cut_clique_7(12,3):  0.11676 x(1,3) + 0.16756 x(2,3) >= 1
cut_clique_7(012,3):  0.00021 x(0,3) + 0.12125 x(1,3) + 0.12582 x(2,3) >= 1
cut_clique_8(013,0):  0.77460 x(0,0) + 0.25382 x(1,0) + 0.02098 x(3,0) >= 1
cut_clique_9(013,0):  0.20916 x(0,0) + 0.27838 x(1,0) + 0.07512 x(3,0) >= 1
cut_clique_9(012,3):  0.02789 x(0,3) + 0.11918 x(1,3) + 0.05937 x(2,3) >= 1
cut_clique_9(0123,3):  0.02240 x(0,3) + 0.10146 x(1,3) + 0.07310 x(2,3) + 0.01163 x(3,3) >= 1
cut_clique_9(123,3):  0.19789 x(1,3) + 0.08959 x(2,3) + 0.01210 x(3,3) >= 1
cut_clique_9(12,3):  0.16848 x(1,3) + 0.11116 x(2,3) >= 1
cut_clique_10(13,2):  0.00922 x(1,2) + 0.04449 x(3,2) >= 1
cut_clique_10(23,3):  0.02470 x(2,3) + 0.12645 x(3,3) >= 1
cut_clique_10(123,3):  0.01259 x(1,3) + 0.02472 x(2,3) + 0.11916 x(3,3) >= 1
cut_clique_10(13,3):  0.01480 x(1,3) + 0.12323 x(3,3) >= 1
cut_clique_10(12,3):  0.12234 x(1,3) + 0.12195 x(2,3) >= 1
cut_clique_11(013,0):  0.12733 x(0,0) + 0.22758 x(1,0) + 0.08105 x(3,0) >= 1
cut_clique_11(13,3):  0.01148 x(1,3) + 0.12747 x(3,3) >= 1
cut_clique_12(23,3):  0.04419 x(2,3) + 0.11388 x(3,3) >= 1
cut_clique_13(23,3):  0.00876 x(2,3) + 0.13347 x(3,3) >= 1
cut_clique_14(013,0):  0.17788 x(0,0) + 0.12116 x(1,0) + 0.07504 x(3,0) >= 1
cut_clique_15(13,2):  0.00917 x(1,2) + 0.04234 x(3,2) >= 1
cut_clique_16(013,0):  0.04825 x(0,0) + 0.46969 x(1,0) + 0.08765 x(3,0) >= 1
cut_clique_16(23,3):  0.02483 x(2,3) + 0.11570 x(3,3) >= 1
cut_clique_17(013,0):  0.08072 x(0,0) + 0.34809 x(1,0) + 0.08474 x(3,0) >= 1
cut_clique_18(013,0):  0.13472 x(0,0) + 0.11918 x(1,0) + 0.07975 x(3,0) >= 1
Bounds
 0 <= C <= 94
 0 <= x(0,0) <= 70
 0 <= y(0,1,0) <= 1
 0 <= y(1,0,0) <= 1
 0 <= v(0,1,0)p <= 69
 0 <= v(0,1,0)n <= 74
 0 <= v(1,0,0)p <= 63
 0 <= v(1,0,0)n <= 80
 0 <= u(0,1,0)p <= 940
 0 <= u(0,1,0)n <= 940
 0 <= u(1,0,0)p <= 940
 0 <= u(1,0,0)n <= 940
 0 <= y(0,2,0) <= 1
 0 <= y(2,0,0) <= 1
 0 <= v(0,2,0)p <= 50
 0 <= v(0,2,0)n <= 94
 0 <= v(2,0,0)p <= 83
 0 <= v(2,0,0)n <= 61
 0 <= u(0,2,0)p <= 940
 0 <= u(0,2,0)n <= 940
 0 <= u(2,0,0)p <= 940
 0 <= u(2,0,0)n <= 940
 0 <= y(0,3,0) <= 1
 0 <= y(3,0,0) <= 1
 0 <= v(0,3,0)p <= 51
 0 <= v(0,3,0)n <= 84
 0 <= v(3,0,0)p <= 65
 0 <= v(3,0,0)n <= 70
 0 <= u(0,3,0)p <= 940
 0 <= u(0,3,0)n <= 940
 0 <= u(3,0,0)p <= 940
 0 <= u(3,0,0)n <= 940
 0 <= x(1,0) <= 73
 0 <= y(1,2,0) <= 1
 0 <= y(2,1,0) <= 1
 0 <= v(1,2,0)p <= 53
 0 <= v(1,2,0)n <= 94
 0 <= v(2,1,0)p <= 92
 0 <= v(2,1,0)n <= 55
 0 <= u(1,2,0)p <= 940
 0 <= u(1,2,0)n <= 940
 0 <= u(2,1,0)p <= 940
 0 <= u(2,1,0)n <= 940
 0 <= y(1,3,0) <= 1
 0 <= y(3,1,0) <= 1
 0 <= v(1,3,0)p <= 54
 0 <= v(1,3,0)n <= 84
 0 <= v(3,1,0)p <= 74
 0 <= v(3,1,0)n <= 64
 0 <= u(1,3,0)p <= 940
 0 <= u(1,3,0)n <= 940
 0 <= u(3,1,0)p <= 940
 0 <= u(3,1,0)n <= 940
 19 <= x(2,0) <= 93
 0 <= y(2,3,0) <= 1
 0 <= y(3,2,0) <= 1
 0 <= v(2,3,0)p <= 74
 0 <= v(2,3,0)n <= 65
 0 <= v(3,2,0)p <= 55
 0 <= v(3,2,0)n <= 84
 0 <= u(2,3,0)p <= 940
 0 <= u(2,3,0)n <= 940
 0 <= u(3,2,0)p <= 940
 0 <= u(3,2,0)n <= 940
 10 <= x(3,0) <= 75
 17 <= x(0,1) <= 87
 0 <= y(0,1,1) <= 1
 0 <= y(1,0,1) <= 1
 0 <= v(0,1,1)p <= 74
 0 <= v(0,1,1)n <= 69
 0 <= v(1,0,1)p <= 57
 0 <= v(1,0,1)n <= 86
 0 <= u(0,1,1)p <= 940
 0 <= u(0,1,1)n <= 940
 0 <= u(1,0,1)p <= 940
 0 <= u(1,0,1)n <= 940
 0 <= y(0,2,1) <= 1
 0 <= y(2,0,1) <= 1
 0 <= v(0,2,1)p <= 68
 0 <= v(0,2,1)n <= 76
 0 <= v(2,0,1)p <= 62
 0 <= v(2,0,1)n <= 82
 0 <= u(0,2,1)p <= 940
 0 <= u(0,2,1)n <= 940
 0 <= u(2,0,1)p <= 940
 0 <= u(2,0,1)n <= 940
 0 <= y(0,3,1) <= 1
 0 <= y(3,0,1) <= 1
 0 <= v(0,3,1)p <= 80
 0 <= v(0,3,1)n <= 55
 0 <= v(3,0,1)p <= 41
 0 <= v(3,0,1)n <= 94
 0 <= u(0,3,1)p <= 940
 0 <= u(0,3,1)n <= 940
 0 <= u(3,0,1)p <= 940
 0 <= u(3,0,1)n <= 940
 8 <= x(1,1) <= 81
 0 <= y(1,2,1) <= 1
 0 <= y(2,1,1) <= 1
 0 <= v(1,2,1)p <= 62
 0 <= v(1,2,1)n <= 85
 0 <= v(2,1,1)p <= 73
 0 <= v(2,1,1)n <= 74
 0 <= u(1,2,1)p <= 940
 0 <= u(1,2,1)n <= 940
 0 <= u(2,1,1)p <= 940
 0 <= u(2,1,1)n <= 940
 0 <= y(1,3,1) <= 1
 0 <= y(3,1,1) <= 1
 0 <= v(1,3,1)p <= 74
 0 <= v(1,3,1)n <= 64
 0 <= v(3,1,1)p <= 52
 0 <= v(3,1,1)n <= 86
 0 <= u(1,3,1)p <= 940
 0 <= u(1,3,1)n <= 940
 0 <= u(3,1,1)p <= 940
 0 <= u(3,1,1)n <= 940
 12 <= x(2,1) <= 86
 0 <= y(2,3,1) <= 1
 0 <= y(3,2,1) <= 1
 0 <= v(2,3,1)p <= 79
 0 <= v(2,3,1)n <= 60
 0 <= v(3,2,1)p <= 46
 0 <= v(3,2,1)n <= 93
 0 <= u(2,3,1)p <= 940
 0 <= u(2,3,1)n <= 940
 0 <= u(3,2,1)p <= 940
 0 <= u(3,2,1)n <= 940
 0 <= x(3,1) <= 65
 11 <= x(0,2) <= 81
 0 <= y(0,1,2) <= 1
 0 <= y(1,0,2) <= 1
 0 <= v(0,1,2)p <= 60
 0 <= v(0,1,2)n <= 83
 0 <= v(1,0,2)p <= 69
 0 <= v(1,0,2)n <= 74
 0 <= u(0,1,2)p <= 940
 0 <= u(0,1,2)n <= 940
 0 <= u(1,0,2)p <= 940
 0 <= u(1,0,2)n <= 940
 0 <= y(0,2,2) <= 1
 0 <= y(2,0,2) <= 1
 0 <= v(0,2,2)p <= 69
 0 <= v(0,2,2)n <= 75
 0 <= v(2,0,2)p <= 66
 0 <= v(2,0,2)n <= 78
 0 <= u(0,2,2)p <= 940
 0 <= u(0,2,2)n <= 940
 0 <= u(2,0,2)p <= 940
 0 <= u(2,0,2)n <= 940
 0 <= y(0,3,2) <= 1
 0 <= y(3,0,2) <= 1
 0 <= v(0,3,2)p <= 52
 0 <= v(0,3,2)n <= 83
 0 <= v(3,0,2)p <= 67
 0 <= v(3,0,2)n <= 68
 0 <= u(0,3,2)p <= 940
 0 <= u(0,3,2)n <= 940
 0 <= u(3,0,2)p <= 940
 0 <= u(3,0,2)n <= 940
 13 <= x(1,2) <= 86
 0 <= y(1,2,2) <= 1
 0 <= y(2,1,2) <= 1
 0 <= v(1,2,2)p <= 74
 0 <= v(1,2,2)n <= 73
 0 <= v(2,1,2)p <= 62
 0 <= v(2,1,2)n <= 85
 0 <= u(1,2,2)p <= 940
 0 <= u(1,2,2)n <= 940
 0 <= u(2,1,2)p <= 940
 0 <= u(2,1,2)n <= 940
 0 <= y(1,3,2) <= 1
 0 <= y(3,1,2) <= 1
 0 <= v(1,3,2)p <= 57
 0 <= v(1,3,2)n <= 81
 0 <= v(3,1,2)p <= 63
 0 <= v(3,1,2)n <= 75
 0 <= u(1,3,2)p <= 940
 0 <= u(1,3,2)n <= 940
 0 <= u(3,1,2)p <= 940
 0 <= u(3,1,2)n <= 940
 9 <= x(2,2) <= 83
 0 <= y(2,3,2) <= 1
 0 <= y(3,2,2) <= 1
 0 <= v(2,3,2)p <= 54
 0 <= v(2,3,2)n <= 85
 0 <= v(3,2,2)p <= 72
 0 <= v(3,2,2)n <= 67
 0 <= u(2,3,2)p <= 940
 0 <= u(2,3,2)n <= 940
 0 <= u(3,2,2)p <= 940
 0 <= u(3,2,2)n <= 940
 19 <= x(3,2) <= 84
 10 <= x(0,3) <= 80
 0 <= y(0,1,3) <= 1
 0 <= y(1,0,3) <= 1
 0 <= v(0,1,3)p <= 72
 0 <= v(0,1,3)n <= 71
 0 <= v(1,0,3)p <= 63
 0 <= v(1,0,3)n <= 80
 0 <= u(0,1,3)p <= 940
 0 <= u(0,1,3)n <= 940
 0 <= u(1,0,3)p <= 940
 0 <= u(1,0,3)n <= 940
 0 <= y(0,2,3) <= 1
 0 <= y(2,0,3) <= 1
 0 <= v(0,2,3)p <= 71
 0 <= v(0,2,3)n <= 73
 0 <= v(2,0,3)p <= 63
 0 <= v(2,0,3)n <= 81
 0 <= u(0,2,3)p <= 940
 0 <= u(0,2,3)n <= 940
 0 <= u(2,0,3)p <= 940
 0 <= u(2,0,3)n <= 940
 0 <= y(0,3,3) <= 1
 0 <= y(3,0,3) <= 1
 0 <= v(0,3,3)p <= 70
 0 <= v(0,3,3)n <= 65
 0 <= v(3,0,3)p <= 61
 0 <= v(3,0,3)n <= 74
 0 <= u(0,3,3)p <= 940
 0 <= u(0,3,3)n <= 940
 0 <= u(3,0,3)p <= 940
 0 <= u(3,0,3)n <= 940
 1 <= x(1,3) <= 74
 0 <= y(1,2,3) <= 1
 0 <= y(2,1,3) <= 1
 0 <= v(1,2,3)p <= 65
 0 <= v(1,2,3)n <= 82
 0 <= v(2,1,3)p <= 66
 0 <= v(2,1,3)n <= 81
 0 <= u(1,2,3)p <= 940
 0 <= u(1,2,3)n <= 940
 0 <= u(2,1,3)p <= 940
 0 <= u(2,1,3)n <= 940
 0 <= y(1,3,3) <= 1
 0 <= y(3,1,3) <= 1
 0 <= v(1,3,3)p <= 64
 0 <= v(1,3,3)n <= 74
 0 <= v(3,1,3)p <= 64
 0 <= v(3,1,3)n <= 74
 0 <= u(1,3,3)p <= 940
 0 <= u(1,3,3)n <= 940
 0 <= u(3,1,3)p <= 940
 0 <= u(3,1,3)n <= 940
 0 <= x(2,3) <= 74
 0 <= y(2,3,3) <= 1
 0 <= y(3,2,3) <= 1
 0 <= v(2,3,3)p <= 64
 0 <= v(2,3,3)n <= 75
 0 <= v(3,2,3)p <= 63
 0 <= v(3,2,3)n <= 76
 0 <= u(2,3,3)p <= 940
 0 <= u(2,3,3)n <= 940
 0 <= u(3,2,3)p <= 940
 0 <= u(3,2,3)n <= 940
 7 <= x(3,3) <= 72
End
